(declare-fun x87 () Real)
(declare-fun x86 () Real)
(declare-fun x85 () Real)
(declare-fun x84 () Real)
(declare-fun x83 () Real)
(declare-fun x82 () Real)
(declare-fun x81 () Real)
(declare-fun x80 () Real)
(declare-fun x79 () Real)
(declare-fun x78 () Real)
(declare-fun x77 () Real)
(declare-fun x76 () Real)
(declare-fun x75 () Real)
(declare-fun x74 () Real)
(declare-fun x73 () Real)
(declare-fun x72 () Real)
(declare-fun x71 () Real)
(declare-fun x70 () Real)
(declare-fun x69 () Real)
(declare-fun x68 () Real)
(declare-fun x67 () Real)
(declare-fun x66 () Real)
(declare-fun x65 () Real)
(declare-fun x64 () Real)
(declare-fun x63 () Real)
(declare-fun x62 () Real)
(declare-fun x61 () Real)
(declare-fun x60 () Real)
(declare-fun x59 () Real)
(declare-fun x58 () Real)
(declare-fun x57 () Real)
(declare-fun x56 () Real)
(declare-fun x55 () Real)
(declare-fun x54 () Real)
(declare-fun x53 () Real)
(declare-fun x52 () Real)
(declare-fun x51 () Real)
(declare-fun x50 () Real)
(declare-fun x49 () Real)
(declare-fun x48 () Real)
(declare-fun x47 () Real)
(declare-fun x46 () Real)
(declare-fun x45 () Real)
(declare-fun x44 () Real)
(declare-fun x43 () Real)
(declare-fun x42 () Real)
(declare-fun x41 () Real)
(declare-fun x40 () Real)
(declare-fun x39 () Real)
(declare-fun x38 () Real)
(declare-fun x37 () Real)
(declare-fun x36 () Real)
(declare-fun x35 () Real)
(declare-fun x34 () Real)
(declare-fun x33 () Real)
(declare-fun x32 () Real)
(declare-fun x31 () Real)
(declare-fun x30 () Real)
(declare-fun x29 () Real)
(declare-fun x28 () Real)
(declare-fun x27 () Real)
(declare-fun x26 () Real)
(declare-fun x25 () Real)
(declare-fun x24 () Real)
(declare-fun x23 () Real)
(declare-fun x22 () Real)
(declare-fun x21 () Real)
(declare-fun x20 () Real)
(declare-fun x19 () Real)
(declare-fun x18 () Real)
(declare-fun x17 () Real)
(declare-fun x16 () Real)
(declare-fun x15 () Real)
(declare-fun x14 () Real)
(declare-fun x13 () Real)
(declare-fun x12 () Real)
(declare-fun x11 () Real)
(declare-fun x10 () Real)
(declare-fun x9 () Real)
(declare-fun x8 () Real)
(declare-fun x7 () Real)
(declare-fun x6 () Real)
(declare-fun x5 () Real)
(declare-fun x4 () Real)
(declare-fun x3 () Real)
(declare-fun x2 () Real)
(declare-fun x1 () Real)
(declare-fun x0 () Real)
(assert (let ((a!1 (+ (* x0 11363636.0)
              (* x1 11363636.0)
              (* x2 11363636.0)
              (* x3 11363636.0)
              (* x4 11363636.0)
              (* x5 11363636.0)
              (* x6 11363636.0)
              (* x7 11363636.0)
              (* x8 11363636.0)
              (* x9 11363636.0)
              (* x10 11363636.0)
              (* x11 11363636.0)
              (* x12 11363636.0)
              (* x13 11363636.0)
              (* x14 11363636.0)
              (* x15 11363636.0)
              (* x16 11363636.0)
              (* x17 11363636.0)
              (* x18 11363636.0)
              (* x19 11363636.0)
              (* x20 11363636.0)
              (* x21 11363636.0)
              (* x22 11363636.0)
              (* x23 11363636.0)
              (* x24 11363636.0)
              (* x25 11363636.0)
              (* x26 11363636.0)
              (* x27 11363636.0)
              (* x28 11363636.0)
              (* x29 11363636.0)
              (* x30 11363636.0)
              (* x31 11363636.0)
              (* x32 11363636.0)
              (* x33 11363636.0)
              (* x34 11363636.0)
              (* x35 11363636.0)
              (* x36 11363636.0)
              (* x37 11363636.0)
              (* x38 11363636.0)
              (* x39 11363636.0)
              (* x40 11363636.0)
              (* x41 11363636.0)
              (* x42 11363636.0)
              (* x43 11363636.0)
              (* x44 11363636.0)
              (* x45 11363636.0)
              (* x46 11363636.0)
              (* x47 11363636.0)
              (* x48 11363636.0)
              (* x49 11363636.0)
              (* x50 11363636.0)
              (* x51 11363636.0)
              (* x52 11363636.0)
              (* x53 11363636.0)
              (* x54 11363636.0)
              (* x55 11363636.0)
              (* x56 11363636.0)
              (* x57 11363636.0)
              (* x58 11363636.0)
              (* x59 11363636.0)
              (* x60 11363636.0)
              (* x61 11363636.0)
              (* x62 11363636.0)
              (* x63 11363636.0)
              (* x64 11363636.0)
              (* x65 11363636.0)
              (* x66 11363636.0)
              (* x67 11363636.0)
              (* x68 11363636.0)
              (* x69 11363636.0)
              (* x70 11363636.0)
              (* x71 11363636.0)
              (* x72 11363636.0)
              (* x73 11363636.0)
              (* x74 11363636.0)
              (* x75 11363636.0)
              (* x76 11363636.0)
              (* x77 11363636.0)
              (* x78 11363636.0)
              (* x79 11363636.0)
              (* x80 11363636.0)
              (* x81 11363636.0)
              (* x82 11363636.0)
              (* x83 11363636.0)
              (* x84 11363636.0)
              (* x85 11363636.0)
              (* x86 11363636.0)
              (* x87 11363636.0)
              (- 994318208.0))))
(let ((a!2 (ite (< a!1 0.0)
                0.0
                (ite (> a!1 1.0) 1.0 (+ (* (/ 1.0 4.0) a!1) (/ 1.0 2.0))))))
  (=> (and (= x0 0.0)
           (= x1 0.0)
           (= x2 0.0)
           (= x3 0.0)
           (= x4 0.0)
           (= x5 0.0)
           (= x6 0.0)
           (= x7 0.0)
           (= x8 0.0)
           (= x9 0.0)
           (= x10 0.0)
           (= x11 0.0)
           (= x12 0.0)
           (= x13 0.0)
           (= x14 0.0)
           (= x15 0.0)
           (= x16 0.0)
           (= x17 0.0)
           (= x18 0.0)
           (= x19 0.0)
           (= x20 0.0)
           (= x21 0.0)
           (= x22 0.0)
           (= x23 0.0)
           (= x24 0.0)
           (= x25 0.0)
           (= x26 0.0)
           (= x27 0.0)
           (= x28 0.0)
           (= x29 0.0)
           (= x30 0.0)
           (= x31 0.0)
           (= x32 0.0)
           (= x33 0.0)
           (= x34 0.0)
           (= x35 0.0)
           (= x36 0.0)
           (= x37 0.0)
           (= x38 0.0)
           (= x39 0.0)
           (= x40 0.0)
           (= x41 0.0)
           (= x42 0.0)
           (= x43 0.0)
           (= x44 0.0)
           (= x45 0.0)
           (= x46 0.0)
           (= x47 0.0)
           (= x48 0.0)
           (= x49 0.0)
           (= x50 0.0)
           (= x51 0.0)
           (= x52 0.0)
           (= x53 0.0)
           (= x54 0.0)
           (= x55 0.0)
           (= x56 0.0)
           (= x57 0.0)
           (= x58 0.0)
           (= x59 0.0)
           (= x60 0.0)
           (= x61 0.0)
           (= x62 0.0)
           (= x63 0.0)
           (= x64 0.0)
           (= x65 0.0)
           (= x66 0.0)
           (= x67 0.0)
           (= x68 0.0)
           (= x69 0.0)
           (= x70 0.0)
           (= x71 0.0)
           (= x72 0.0)
           (= x73 0.0)
           (= x74 0.0)
           (= x75 0.0)
           (= x76 0.0)
           (= x77 0.0)
           (= x78 0.0)
           (= x79 0.0)
           (= x80 0.0)
           (= x81 0.0)
           (= x82 0.0)
           (= x83 0.0)
           (= x84 0.0)
           (= x85 0.0)
           (= x86 0.0)
           (= x87 0.0))
      (= a!2 0.0)))))
(assert (let ((a!1 (+ (* x0 11363636.0)
              (* x1 11363636.0)
              (* x2 11363636.0)
              (* x3 11363636.0)
              (* x4 11363636.0)
              (* x5 11363636.0)
              (* x6 11363636.0)
              (* x7 11363636.0)
              (* x8 11363636.0)
              (* x9 11363636.0)
              (* x10 11363636.0)
              (* x11 11363636.0)
              (* x12 11363636.0)
              (* x13 11363636.0)
              (* x14 11363636.0)
              (* x15 11363636.0)
              (* x16 11363636.0)
              (* x17 11363636.0)
              (* x18 11363636.0)
              (* x19 11363636.0)
              (* x20 11363636.0)
              (* x21 11363636.0)
              (* x22 11363636.0)
              (* x23 11363636.0)
              (* x24 11363636.0)
              (* x25 11363636.0)
              (* x26 11363636.0)
              (* x27 11363636.0)
              (* x28 11363636.0)
              (* x29 11363636.0)
              (* x30 11363636.0)
              (* x31 11363636.0)
              (* x32 11363636.0)
              (* x33 11363636.0)
              (* x34 11363636.0)
              (* x35 11363636.0)
              (* x36 11363636.0)
              (* x37 11363636.0)
              (* x38 11363636.0)
              (* x39 11363636.0)
              (* x40 11363636.0)
              (* x41 11363636.0)
              (* x42 11363636.0)
              (* x43 11363636.0)
              (* x44 11363636.0)
              (* x45 11363636.0)
              (* x46 11363636.0)
              (* x47 11363636.0)
              (* x48 11363636.0)
              (* x49 11363636.0)
              (* x50 11363636.0)
              (* x51 11363636.0)
              (* x52 11363636.0)
              (* x53 11363636.0)
              (* x54 11363636.0)
              (* x55 11363636.0)
              (* x56 11363636.0)
              (* x57 11363636.0)
              (* x58 11363636.0)
              (* x59 11363636.0)
              (* x60 11363636.0)
              (* x61 11363636.0)
              (* x62 11363636.0)
              (* x63 11363636.0)
              (* x64 11363636.0)
              (* x65 11363636.0)
              (* x66 11363636.0)
              (* x67 11363636.0)
              (* x68 11363636.0)
              (* x69 11363636.0)
              (* x70 11363636.0)
              (* x71 11363636.0)
              (* x72 11363636.0)
              (* x73 11363636.0)
              (* x74 11363636.0)
              (* x75 11363636.0)
              (* x76 11363636.0)
              (* x77 11363636.0)
              (* x78 11363636.0)
              (* x79 11363636.0)
              (* x80 11363636.0)
              (* x81 11363636.0)
              (* x82 11363636.0)
              (* x83 11363636.0)
              (* x84 11363636.0)
              (* x85 11363636.0)
              (* x86 11363636.0)
              (* x87 11363636.0)
              (- 994318208.0))))
(let ((a!2 (ite (< a!1 0.0)
                0.0
                (ite (> a!1 1.0) 1.0 (+ (* (/ 1.0 4.0) a!1) (/ 1.0 2.0))))))
  (=> (and (= x0 0.0)
           (= x1 1.0)
           (= x2 1.0)
           (= x3 1.0)
           (= x4 1.0)
           (= x5 1.0)
           (= x6 1.0)
           (= x7 1.0)
           (= x8 1.0)
           (= x9 1.0)
           (= x10 1.0)
           (= x11 1.0)
           (= x12 1.0)
           (= x13 1.0)
           (= x14 1.0)
           (= x15 1.0)
           (= x16 1.0)
           (= x17 1.0)
           (= x18 1.0)
           (= x19 1.0)
           (= x20 1.0)
           (= x21 1.0)
           (= x22 1.0)
           (= x23 1.0)
           (= x24 1.0)
           (= x25 1.0)
           (= x26 1.0)
           (= x27 1.0)
           (= x28 1.0)
           (= x29 1.0)
           (= x30 1.0)
           (= x31 1.0)
           (= x32 1.0)
           (= x33 1.0)
           (= x34 1.0)
           (= x35 1.0)
           (= x36 1.0)
           (= x37 1.0)
           (= x38 1.0)
           (= x39 1.0)
           (= x40 1.0)
           (= x41 1.0)
           (= x42 1.0)
           (= x43 1.0)
           (= x44 1.0)
           (= x45 1.0)
           (= x46 1.0)
           (= x47 1.0)
           (= x48 1.0)
           (= x49 1.0)
           (= x50 1.0)
           (= x51 1.0)
           (= x52 1.0)
           (= x53 1.0)
           (= x54 1.0)
           (= x55 1.0)
           (= x56 1.0)
           (= x57 1.0)
           (= x58 1.0)
           (= x59 1.0)
           (= x60 1.0)
           (= x61 1.0)
           (= x62 1.0)
           (= x63 1.0)
           (= x64 1.0)
           (= x65 1.0)
           (= x66 1.0)
           (= x67 1.0)
           (= x68 1.0)
           (= x69 1.0)
           (= x70 1.0)
           (= x71 1.0)
           (= x72 1.0)
           (= x73 1.0)
           (= x74 1.0)
           (= x75 1.0)
           (= x76 1.0)
           (= x77 1.0)
           (= x78 1.0)
           (= x79 1.0)
           (= x80 1.0)
           (= x81 1.0)
           (= x82 1.0)
           (= x83 1.0)
           (= x84 1.0)
           (= x85 1.0)
           (= x86 1.0)
           (= x87 1.0))
      (= a!2 0.0)))))
(assert (let ((a!1 (+ (* x0 11363636.0)
              (* x1 11363636.0)
              (* x2 11363636.0)
              (* x3 11363636.0)
              (* x4 11363636.0)
              (* x5 11363636.0)
              (* x6 11363636.0)
              (* x7 11363636.0)
              (* x8 11363636.0)
              (* x9 11363636.0)
              (* x10 11363636.0)
              (* x11 11363636.0)
              (* x12 11363636.0)
              (* x13 11363636.0)
              (* x14 11363636.0)
              (* x15 11363636.0)
              (* x16 11363636.0)
              (* x17 11363636.0)
              (* x18 11363636.0)
              (* x19 11363636.0)
              (* x20 11363636.0)
              (* x21 11363636.0)
              (* x22 11363636.0)
              (* x23 11363636.0)
              (* x24 11363636.0)
              (* x25 11363636.0)
              (* x26 11363636.0)
              (* x27 11363636.0)
              (* x28 11363636.0)
              (* x29 11363636.0)
              (* x30 11363636.0)
              (* x31 11363636.0)
              (* x32 11363636.0)
              (* x33 11363636.0)
              (* x34 11363636.0)
              (* x35 11363636.0)
              (* x36 11363636.0)
              (* x37 11363636.0)
              (* x38 11363636.0)
              (* x39 11363636.0)
              (* x40 11363636.0)
              (* x41 11363636.0)
              (* x42 11363636.0)
              (* x43 11363636.0)
              (* x44 11363636.0)
              (* x45 11363636.0)
              (* x46 11363636.0)
              (* x47 11363636.0)
              (* x48 11363636.0)
              (* x49 11363636.0)
              (* x50 11363636.0)
              (* x51 11363636.0)
              (* x52 11363636.0)
              (* x53 11363636.0)
              (* x54 11363636.0)
              (* x55 11363636.0)
              (* x56 11363636.0)
              (* x57 11363636.0)
              (* x58 11363636.0)
              (* x59 11363636.0)
              (* x60 11363636.0)
              (* x61 11363636.0)
              (* x62 11363636.0)
              (* x63 11363636.0)
              (* x64 11363636.0)
              (* x65 11363636.0)
              (* x66 11363636.0)
              (* x67 11363636.0)
              (* x68 11363636.0)
              (* x69 11363636.0)
              (* x70 11363636.0)
              (* x71 11363636.0)
              (* x72 11363636.0)
              (* x73 11363636.0)
              (* x74 11363636.0)
              (* x75 11363636.0)
              (* x76 11363636.0)
              (* x77 11363636.0)
              (* x78 11363636.0)
              (* x79 11363636.0)
              (* x80 11363636.0)
              (* x81 11363636.0)
              (* x82 11363636.0)
              (* x83 11363636.0)
              (* x84 11363636.0)
              (* x85 11363636.0)
              (* x86 11363636.0)
              (* x87 11363636.0)
              (- 994318208.0))))
(let ((a!2 (ite (< a!1 0.0)
                0.0
                (ite (> a!1 1.0) 1.0 (+ (* (/ 1.0 4.0) a!1) (/ 1.0 2.0))))))
  (=> (and (= x0 0.0)
           (= x1 0.0)
           (= x2 0.0)
           (= x3 0.0)
           (= x4 0.0)
           (= x5 0.0)
           (= x6 0.0)
           (= x7 0.0)
           (= x8 0.0)
           (= x9 0.0)
           (= x10 0.0)
           (= x11 0.0)
           (= x12 0.0)
           (= x13 0.0)
           (= x14 0.0)
           (= x15 0.0)
           (= x16 0.0)
           (= x17 0.0)
           (= x18 0.0)
           (= x19 0.0)
           (= x20 0.0)
           (= x21 0.0)
           (= x22 0.0)
           (= x23 0.0)
           (= x24 0.0)
           (= x25 0.0)
           (= x26 0.0)
           (= x27 0.0)
           (= x28 0.0)
           (= x29 0.0)
           (= x30 0.0)
           (= x31 0.0)
           (= x32 0.0)
           (= x33 0.0)
           (= x34 0.0)
           (= x35 0.0)
           (= x36 0.0)
           (= x37 0.0)
           (= x38 0.0)
           (= x39 0.0)
           (= x40 0.0)
           (= x41 0.0)
           (= x42 0.0)
           (= x43 0.0)
           (= x44 0.0)
           (= x45 0.0)
           (= x46 0.0)
           (= x47 0.0)
           (= x48 0.0)
           (= x49 0.0)
           (= x50 0.0)
           (= x51 0.0)
           (= x52 0.0)
           (= x53 0.0)
           (= x54 0.0)
           (= x55 0.0)
           (= x56 0.0)
           (= x57 0.0)
           (= x58 0.0)
           (= x59 0.0)
           (= x60 0.0)
           (= x61 0.0)
           (= x62 0.0)
           (= x63 0.0)
           (= x64 0.0)
           (= x65 0.0)
           (= x66 0.0)
           (= x67 0.0)
           (= x68 0.0)
           (= x69 0.0)
           (= x70 0.0)
           (= x71 0.0)
           (= x72 0.0)
           (= x73 0.0)
           (= x74 0.0)
           (= x75 0.0)
           (= x76 0.0)
           (= x77 0.0)
           (= x78 0.0)
           (= x79 0.0)
           (= x80 0.0)
           (= x81 0.0)
           (= x82 0.0)
           (= x83 0.0)
           (= x84 0.0)
           (= x85 0.0)
           (= x86 0.0)
           (= x87 1.0))
      (= a!2 0.0)))))
(assert (let ((a!1 (+ (* x0 11363636.0)
              (* x1 11363636.0)
              (* x2 11363636.0)
              (* x3 11363636.0)
              (* x4 11363636.0)
              (* x5 11363636.0)
              (* x6 11363636.0)
              (* x7 11363636.0)
              (* x8 11363636.0)
              (* x9 11363636.0)
              (* x10 11363636.0)
              (* x11 11363636.0)
              (* x12 11363636.0)
              (* x13 11363636.0)
              (* x14 11363636.0)
              (* x15 11363636.0)
              (* x16 11363636.0)
              (* x17 11363636.0)
              (* x18 11363636.0)
              (* x19 11363636.0)
              (* x20 11363636.0)
              (* x21 11363636.0)
              (* x22 11363636.0)
              (* x23 11363636.0)
              (* x24 11363636.0)
              (* x25 11363636.0)
              (* x26 11363636.0)
              (* x27 11363636.0)
              (* x28 11363636.0)
              (* x29 11363636.0)
              (* x30 11363636.0)
              (* x31 11363636.0)
              (* x32 11363636.0)
              (* x33 11363636.0)
              (* x34 11363636.0)
              (* x35 11363636.0)
              (* x36 11363636.0)
              (* x37 11363636.0)
              (* x38 11363636.0)
              (* x39 11363636.0)
              (* x40 11363636.0)
              (* x41 11363636.0)
              (* x42 11363636.0)
              (* x43 11363636.0)
              (* x44 11363636.0)
              (* x45 11363636.0)
              (* x46 11363636.0)
              (* x47 11363636.0)
              (* x48 11363636.0)
              (* x49 11363636.0)
              (* x50 11363636.0)
              (* x51 11363636.0)
              (* x52 11363636.0)
              (* x53 11363636.0)
              (* x54 11363636.0)
              (* x55 11363636.0)
              (* x56 11363636.0)
              (* x57 11363636.0)
              (* x58 11363636.0)
              (* x59 11363636.0)
              (* x60 11363636.0)
              (* x61 11363636.0)
              (* x62 11363636.0)
              (* x63 11363636.0)
              (* x64 11363636.0)
              (* x65 11363636.0)
              (* x66 11363636.0)
              (* x67 11363636.0)
              (* x68 11363636.0)
              (* x69 11363636.0)
              (* x70 11363636.0)
              (* x71 11363636.0)
              (* x72 11363636.0)
              (* x73 11363636.0)
              (* x74 11363636.0)
              (* x75 11363636.0)
              (* x76 11363636.0)
              (* x77 11363636.0)
              (* x78 11363636.0)
              (* x79 11363636.0)
              (* x80 11363636.0)
              (* x81 11363636.0)
              (* x82 11363636.0)
              (* x83 11363636.0)
              (* x84 11363636.0)
              (* x85 11363636.0)
              (* x86 11363636.0)
              (* x87 11363636.0)
              (- 994318208.0))))
(let ((a!2 (ite (< a!1 0.0)
                0.0
                (ite (> a!1 1.0) 1.0 (+ (* (/ 1.0 4.0) a!1) (/ 1.0 2.0))))))
  (=> (and (= x0 1.0)
           (= x1 1.0)
           (= x2 1.0)
           (= x3 1.0)
           (= x4 1.0)
           (= x5 1.0)
           (= x6 1.0)
           (= x7 1.0)
           (= x8 1.0)
           (= x9 1.0)
           (= x10 1.0)
           (= x11 1.0)
           (= x12 1.0)
           (= x13 1.0)
           (= x14 1.0)
           (= x15 1.0)
           (= x16 1.0)
           (= x17 1.0)
           (= x18 1.0)
           (= x19 1.0)
           (= x20 1.0)
           (= x21 1.0)
           (= x22 1.0)
           (= x23 1.0)
           (= x24 1.0)
           (= x25 1.0)
           (= x26 1.0)
           (= x27 1.0)
           (= x28 1.0)
           (= x29 1.0)
           (= x30 1.0)
           (= x31 1.0)
           (= x32 1.0)
           (= x33 1.0)
           (= x34 1.0)
           (= x35 1.0)
           (= x36 1.0)
           (= x37 1.0)
           (= x38 1.0)
           (= x39 1.0)
           (= x40 1.0)
           (= x41 1.0)
           (= x42 1.0)
           (= x43 1.0)
           (= x44 1.0)
           (= x45 1.0)
           (= x46 1.0)
           (= x47 1.0)
           (= x48 1.0)
           (= x49 1.0)
           (= x50 1.0)
           (= x51 1.0)
           (= x52 1.0)
           (= x53 1.0)
           (= x54 1.0)
           (= x55 1.0)
           (= x56 1.0)
           (= x57 1.0)
           (= x58 1.0)
           (= x59 1.0)
           (= x60 1.0)
           (= x61 1.0)
           (= x62 1.0)
           (= x63 1.0)
           (= x64 1.0)
           (= x65 1.0)
           (= x66 1.0)
           (= x67 1.0)
           (= x68 1.0)
           (= x69 1.0)
           (= x70 1.0)
           (= x71 1.0)
           (= x72 1.0)
           (= x73 1.0)
           (= x74 1.0)
           (= x75 1.0)
           (= x76 1.0)
           (= x77 1.0)
           (= x78 1.0)
           (= x79 1.0)
           (= x80 1.0)
           (= x81 1.0)
           (= x82 1.0)
           (= x83 1.0)
           (= x84 1.0)
           (= x85 1.0)
           (= x86 1.0)
           (= x87 1.0))
      (= a!2 1.0)))))
(check-sat)
